
atom_style atomic 
units metal
boundary p p p 
atom_modify sort 0 0.0 

read_data conf.lmp 

### interactions
pair_style  deepmd  water.pb 
pair_coeff * * 

mass 1 15.999000 
mass 2 1.008000 

### run

thermo_style custom step temp press cpu pxx pyy pzz pxy pxz pyz ke pe etotal vol lx ly lz atoms

thermo 1

minimize 1.0e-20 1.0e-6 2000 4000

